projected/problems_b25_r0_d7_m100_s666/_DIMACS/b25_d7_r0_s666_016.cnf
p cnf 235 390 25
c p show 1 2 3 4 5 6 7 8 9 10 11 12 13 14 15 16 17 18 19 20 21 22 23 24 25
-78 -13 0
-78 3 0
-79 6 23 0
-80 79 0
-80 78 0
-81 -6 0
-81 -23 0
-82 13 -3 0
-83 82 0
-83 81 0
-84 83 80 0
-85 -20 0
-85 -3 0
-86 9 0
-86 1 0
-87 86 0
-87 85 0
-88 -9 -1 0
-89 20 3 0
-90 89 0
-90 88 0
-91 90 87 0
-92 91 84 0
-93 -24 0
-93 -9 0
-94 -13 12 0
-95 94 93 0
-96 -23 0
-96 15 0
-97 19 0
-97 9 0
-98 97 0
-98 96 0
-99 -19 -9 0
-100 23 -15 0
-101 100 0
-101 99 0
-102 101 98 0
-103 102 0
-103 95 0
-104 103 92 0
-105 -11 0
-105 -18 0
-106 14 1 0
-107 106 0
-107 105 0
-108 25 1 0
-109 5 0
-109 -6 0
-110 109 108 0
-111 110 107 0
-112 -25 0
-112 -1 0
-113 -5 6 0
-114 113 0
-114 112 0
-115 11 18 0
-116 -14 0
-116 -1 0
-117 116 115 0
-118 117 114 0
-119 118 0
-119 111 0
-120 -5 21 0
-121 -2 -22 0
-122 121 0
-122 120 0
-123 2 0
-123 22 0
-124 5 0
-124 -21 0
-125 124 0
-125 123 0
-126 125 122 0
-127 -14 0
-127 -24 0
-128 14 0
-128 -16 0
-129 128 127 0
-130 129 126 0
-131 130 0
-131 119 0
-132 123 124 0
-133 120 121 0
-134 133 0
-134 132 0
-135 14 24 0
-136 -14 16 0
-137 136 0
-137 135 0
-138 137 0
-138 134 0
-139 114 0
-139 117 0
-140 107 0
-140 110 0
-141 140 139 0
-142 141 0
-142 138 0
-143 142 131 0
-144 143 0
-144 104 0
-145 138 141 0
-146 119 130 0
-147 146 0
-147 145 0
-148 81 82 0
-149 78 79 0
-150 149 0
-150 148 0
-151 88 89 0
-152 85 86 0
-153 152 0
-153 151 0
-154 153 0
-154 150 0
-155 24 9 0
-156 13 0
-156 -12 0
-157 156 0
-157 155 0
-158 99 100 0
-159 96 97 0
-160 159 0
-160 158 0
-161 160 157 0
-162 161 0
-162 154 0
-163 162 0
-163 147 0
-164 163 144 0
-165 4 -24 0
-166 3 0
-166 14 0
-167 166 0
-167 165 0
-168 -8 0
-168 22 0
-169 18 0
-169 24 0
-170 169 168 0
-171 170 0
-171 167 0
-172 19 0
-172 3 0
-173 -16 0
-173 13 0
-174 173 172 0
-175 9 -19 0
-176 -11 7 0
-177 -7 11 0
-178 177 0
-178 176 0
-179 178 0
-179 175 0
-180 179 174 0
-181 180 0
-181 171 0
-182 -6 0
-182 3 0
-183 -1 -5 0
-184 183 0
-184 182 0
-185 1 -6 0
-186 -3 -19 0
-187 186 185 0
-188 187 0
-188 184 0
-189 -5 0
-189 -1 0
-190 -5 -6 0
-191 6 5 0
-192 191 0
-192 190 0
-193 192 0
-193 189 0
-194 4 0
-194 -20 0
-195 -22 0
-195 -13 0
-196 195 0
-196 194 0
-197 22 13 0
-198 -4 20 0
-199 198 0
-199 197 0
-200 199 196 0
-201 200 193 0
-202 201 188 0
-203 202 0
-203 181 0
-204 203 0
-204 164 0
-205 -12 0
-205 -23 0
-206 18 5 0
-207 206 205 0
-208 25 0
-208 14 0
-209 16 0
-209 23 0
-210 209 208 0
-211 210 207 0
-212 15 8 0
-213 -18 -3 0
-214 213 0
-214 212 0
-215 7 -12 0
-216 -6 0
-216 9 0
-217 216 215 0
-218 217 214 0
-219 218 211 0
-220 -15 0
-220 -8 0
-221 18 0
-221 3 0
-222 221 220 0
-223 -7 0
-223 12 0
-224 6 -9 0
-225 224 0
-225 223 0
-226 225 0
-226 222 0
-227 12 23 0
-228 -18 0
-228 -5 0
-229 228 0
-229 227 0
-230 -25 -14 0
-231 -16 -23 0
-232 231 0
-232 230 0
-233 232 0
-233 229 0
-234 233 226 0
-235 234 0
-235 219 0
-26 -23 0
-26 2 0
-27 24 0
-27 15 0
-56 27 26 0
-62 12 0
-62 -1 0
-68 -15 0
-68 20 0
-28 68 62 0
-74 28 56 0
-75 17 -1 0
-76 -11 -23 0
-77 76 0
-77 75 0
-29 8 -7 0
-30 21 0
-30 15 0
-31 30 0
-31 29 0
-32 31 0
-32 77 0
-33 32 74 0
-34 33 235 0
-35 22 0
-35 -10 0
-36 22 20 0
-37 36 35 0
-38 -22 0
-38 -20 0
-39 -22 10 0
-40 39 38 0
-41 40 0
-41 37 0
-42 11 10 0
-43 -19 23 0
-44 43 42 0
-45 44 0
-45 41 0
-46 7 -4 0
-47 9 2 0
-48 47 0
-48 46 0
-49 12 0
-49 -3 0
-50 -23 0
-50 -7 0
-51 50 0
-51 49 0
-52 51 48 0
-53 52 45 0
-54 8 0
-54 -1 0
-55 -11 0
-55 -21 0
-57 55 0
-57 54 0
-58 4 0
-58 -13 0
-59 -6 -13 0
-60 59 0
-60 58 0
-61 60 57 0
-63 12 0
-63 21 0
-64 12 -16 0
-65 64 0
-65 63 0
-66 22 0
-66 20 0
-67 -10 0
-67 4 0
-69 67 0
-69 66 0
-70 69 65 0
-71 70 0
-71 61 0
-72 71 53 0
-73 72 0
-73 34 0
73 0
204 0
-121 -123 0
-124 -120 0
-134 -126 0
-126 -134 0
-135 -127 0
-128 -136 0
-136 -128 0
-137 -129 0
-129 -137 0
-130 -138 0
-112 -108 0
-108 -112 0
-113 -109 0
-109 -113 0
-110 -114 0
-114 -110 0
-105 -115 0
-115 -105 0
-116 -106 0
-117 -107 0
-107 -117 0
-119 -141 0
-141 -119 0
-147 -143 0
-143 -147 0
-79 -81 0
-82 -78 0
-150 -84 0
-86 -88 0
-85 -89 0
-89 -85 0
-153 -91 0
-154 -92 0
-155 -93 0
-156 -94 0
-157 -95 0
-95 -157 0
-99 -97 0
-97 -99 0
-100 -96 0
-160 -102 0
-102 -160 0
-103 -161 0
-161 -103 0
-162 -104 0
-195 -197 0
-194 -198 0
-198 -194 0
-220 -212 0
-221 -213 0
-222 -214 0
-223 -215 0
-216 -224 0
-224 -216 0
-225 -217 0
-226 -218 0
-205 -227 0
-227 -205 0
-228 -206 0
-229 -207 0
-230 -208 0
-231 -209 0
-232 -210 0
-233 -211 0
-211 -233 0
-36 -38 0
-38 -36 0
-39 -35 0
-35 -39 0
