projected/problems_b25_r0_d7_m100_s666/b25_d7_r0_s666_016.smt2
(set-logic QF_UF)
(declare-fun A0 () Bool)
(declare-fun A1 () Bool)
(declare-fun A2 () Bool)
(declare-fun A3 () Bool)
(declare-fun A4 () Bool)
(declare-fun A5 () Bool)
(declare-fun A6 () Bool)
(declare-fun A7 () Bool)
(declare-fun A8 () Bool)
(declare-fun A9 () Bool)
(declare-fun A10 () Bool)
(declare-fun A11 () Bool)
(declare-fun A12 () Bool)
(declare-fun A13 () Bool)
(declare-fun A14 () Bool)
(declare-fun A15 () Bool)
(declare-fun A16 () Bool)
(declare-fun A17 () Bool)
(declare-fun A18 () Bool)
(declare-fun A19 () Bool)
(declare-fun A20 () Bool)
(declare-fun A21 () Bool)
(declare-fun A22 () Bool)
(declare-fun A23 () Bool)
(declare-fun A24 () Bool)
(assert (let ((.def_0 (not A21))) (let ((.def_1 (not A1))) (let ((.def_2 (or .def_1 .def_0))) (let ((.def_3 (not A20))) (let ((.def_4 (and A4 .def_3))) (let ((.def_5 (= .def_4 .def_2))) (let ((.def_6 (not .def_5))) (let ((.def_7 (or A13 A23))) (let ((.def_8 (not A15))) (let ((.def_9 (and A13 .def_8))) (let ((.def_10 (not .def_9))) (let ((.def_11 (and .def_10 .def_7))) (let ((.def_12 (not .def_11))) (let ((.def_13 (or .def_12 .def_6))) (let ((.def_14 (not A0))) (let ((.def_15 (not A24))) (let ((.def_16 (and .def_15 .def_14))) (let ((.def_17 (not .def_16))) (let ((.def_18 (not A4))) (let ((.def_19 (or .def_18 A5))) (let ((.def_20 (not .def_19))) (let ((.def_21 (or .def_20 .def_17))) (let ((.def_22 (not .def_21))) (let ((.def_23 (not A17))) (let ((.def_24 (not A10))) (let ((.def_25 (and .def_24 .def_23))) (let ((.def_26 (not .def_25))) (let ((.def_27 (not A13))) (let ((.def_28 (and .def_27 .def_14))) (let ((.def_29 (or .def_28 .def_26))) (let ((.def_30 (not .def_29))) (let ((.def_31 (= .def_30 .def_22))) (let ((.def_32 (not .def_31))) (let ((.def_33 (= .def_32 .def_13))) (let ((.def_34 (not .def_33))) (let ((.def_35 (or A5 A22))) (let ((.def_36 (not A2))) (let ((.def_37 (or A12 .def_36))) (let ((.def_38 (= .def_37 .def_35))) (let ((.def_39 (and A8 A0))) (let ((.def_40 (not A19))) (let ((.def_41 (and .def_40 .def_36))) (let ((.def_42 (not .def_41))) (let ((.def_43 (= .def_42 .def_39))) (let ((.def_44 (and .def_43 .def_38))) (let ((.def_45 (or A23 A8))) (let ((.def_46 (not A11))) (let ((.def_47 (and A12 .def_46))) (let ((.def_48 (and .def_47 .def_45))) (let ((.def_49 (not .def_48))) (let ((.def_50 (not A8))) (let ((.def_51 (not A18))) (let ((.def_52 (or .def_51 .def_50))) (let ((.def_53 (not .def_52))) (let ((.def_54 (not A14))) (let ((.def_55 (or A22 .def_54))) (let ((.def_56 (= .def_55 .def_53))) (let ((.def_57 (not .def_56))) (let ((.def_58 (and .def_57 .def_49))) (let ((.def_59 (not .def_58))) (let ((.def_60 (and .def_59 .def_44))) (let ((.def_61 (= .def_60 .def_34))) (let ((.def_62 (not .def_61))) (let ((.def_63 (not A3))) (let ((.def_64 (and .def_63 A23))) (let ((.def_65 (or .def_36 .def_27))) (let ((.def_66 (or .def_65 .def_64))) (let ((.def_67 (not .def_66))) (let ((.def_68 (not A7))) (let ((.def_69 (and .def_68 A21))) (let ((.def_70 (and A17 A23))) (let ((.def_71 (or .def_70 .def_69))) (let ((.def_72 (and .def_71 .def_67))) (let ((.def_73 (and A18 A2))) (let ((.def_74 (and .def_8 A12))) (let ((.def_75 (or .def_74 .def_73))) (let ((.def_76 (not .def_75))) (let ((.def_77 (and .def_50 A18))) (let ((.def_78 (not .def_77))) (let ((.def_79 (= A6 A10))) (let ((.def_80 (and .def_79 .def_78))) (let ((.def_81 (not .def_80))) (let ((.def_82 (and .def_81 .def_76))) (let ((.def_83 (not .def_82))) (let ((.def_84 (and .def_83 .def_72))) (let ((.def_85 (not .def_84))) (let ((.def_86 (not A5))) (let ((.def_87 (and .def_86 A2))) (let ((.def_88 (or .def_14 .def_18))) (let ((.def_89 (and .def_88 .def_87))) (let ((.def_90 (not .def_89))) (let ((.def_91 (or A0 .def_86))) (let ((.def_92 (or .def_36 .def_51))) (let ((.def_93 (or .def_92 .def_91))) (let ((.def_94 (not .def_93))) (let ((.def_95 (or .def_94 .def_90))) (let ((.def_96 (and .def_18 .def_14))) (let ((.def_97 (= .def_86 A4))) (let ((.def_98 (and .def_97 .def_96))) (let ((.def_99 (not A12))) (let ((.def_100 (and .def_0 .def_99))) (let ((.def_101 (and A3 .def_40))) (let ((.def_102 (not .def_101))) (let ((.def_103 (= .def_102 .def_100))) (let ((.def_104 (not .def_103))) (let ((.def_105 (or .def_104 .def_98))) (let ((.def_106 (not .def_105))) (let ((.def_107 (and .def_106 .def_95))) (let ((.def_108 (or .def_107 .def_85))) (let ((.def_109 (not .def_108))) (let ((.def_110 (and .def_109 .def_62))) (let ((.def_111 (and .def_54 .def_68))) (let ((.def_112 (and A17 A2))) (let ((.def_113 (or .def_112 .def_111))) (let ((.def_114 (not A6))) (let ((.def_115 (and .def_114 A11))) (let ((.def_116 (and .def_86 A8))) (let ((.def_117 (not .def_116))) (let ((.def_118 (and .def_117 .def_115))) (let ((.def_119 (and .def_118 .def_113))) (let ((.def_120 (not A22))) (let ((.def_121 (and .def_46 .def_120))) (let ((.def_122 (not .def_121))) (let ((.def_123 (and .def_23 .def_18))) (let ((.def_124 (and .def_123 .def_122))) (let ((.def_125 (or .def_15 .def_27))) (let ((.def_126 (or .def_8 .def_120))) (let ((.def_127 (and .def_126 .def_125))) (let ((.def_128 (and .def_127 .def_124))) (let ((.def_129 (not .def_128))) (let ((.def_130 (= .def_129 .def_119))) (let ((.def_131 (and .def_120 A1))) (let ((.def_132 (not .def_131))) (let ((.def_133 (not A23))) (let ((.def_134 (or .def_133 .def_54))) (let ((.def_135 (and .def_134 .def_132))) (let ((.def_136 (not .def_135))) (let ((.def_137 (or .def_46 A0))) (let ((.def_138 (not .def_137))) (let ((.def_139 (or A14 .def_40))) (let ((.def_140 (not .def_139))) (let ((.def_141 (or .def_140 .def_138))) (let ((.def_142 (or .def_141 .def_136))) (let ((.def_143 (not .def_142))) (let ((.def_144 (or A16 .def_14))) (let ((.def_145 (or .def_24 .def_120))) (let ((.def_146 (and .def_145 .def_144))) (let ((.def_147 (not .def_146))) (let ((.def_148 (and .def_68 A6))) (let ((.def_149 (not .def_148))) (let ((.def_150 (and A20 A14))) (let ((.def_151 (and .def_150 .def_149))) (let ((.def_152 (not .def_151))) (let ((.def_153 (or .def_152 .def_147))) (let ((.def_154 (and .def_153 .def_143))) (let ((.def_155 (not .def_154))) (let ((.def_156 (or .def_155 .def_130))) (let ((.def_157 (not .def_156))) (let ((.def_158 (or A21 A19))) (let ((.def_159 (not .def_158))) (let ((.def_160 (or .def_0 A9))) (let ((.def_161 (not .def_160))) (let ((.def_162 (= .def_161 .def_159))) (let ((.def_163 (or A10 A9))) (let ((.def_164 (or .def_51 A22))) (let ((.def_165 (or .def_164 .def_163))) (let ((.def_166 (and .def_165 .def_162))) (let ((.def_167 (not .def_166))) (let ((.def_168 (or A6 .def_63))) (let ((.def_169 (not .def_168))) (let ((.def_170 (and .def_50 .def_1))) (let ((.def_171 (or .def_170 .def_169))) (let ((.def_172 (or .def_46 A2))) (let ((.def_173 (or A22 A6))) (let ((.def_174 (or .def_173 .def_172))) (let ((.def_175 (and .def_174 .def_171))) (let ((.def_176 (and .def_175 .def_167))) (let ((.def_177 (not .def_176))) (let ((.def_178 (or .def_68 A0))) (let ((.def_179 (not .def_178))) (let ((.def_180 (or A10 A20))) (let ((.def_181 (not .def_180))) (let ((.def_182 (and .def_181 .def_179))) (let ((.def_183 (and A3 .def_99))) (let ((.def_184 (not .def_183))) (let ((.def_185 (and A5 A12))) (let ((.def_186 (or .def_185 .def_184))) (let ((.def_187 (not .def_186))) (let ((.def_188 (or .def_187 .def_182))) (let ((.def_189 (not .def_188))) (let ((.def_190 (or .def_46 .def_3))) (let ((.def_191 (not .def_190))) (let ((.def_192 (or A11 .def_8))) (let ((.def_193 (and .def_192 .def_191))) (let ((.def_194 (and A21 A19))) (let ((.def_195 (not .def_194))) (let ((.def_196 (or A9 .def_63))) (let ((.def_197 (or .def_196 .def_195))) (let ((.def_198 (not .def_197))) (let ((.def_199 (or .def_198 .def_193))) (let ((.def_200 (not .def_199))) (let ((.def_201 (or .def_200 .def_189))) (let ((.def_202 (not .def_201))) (let ((.def_203 (or .def_202 .def_177))) (let ((.def_204 (not .def_203))) (let ((.def_205 (or .def_204 .def_157))) (let ((.def_206 (not .def_205))) (let ((.def_207 (and .def_206 .def_110))) .def_207)))))))))))))))))))))))))))))))))))))))))))))))))))))))))))))))))))))))))))))))))))))))))))))))))))))))))))))))))))))))))))))))))))))))))))))))))))))))))))))))))))))))))))))))))))))))))))))))))))))))))))))))))
(check-sat)
